WARNING: for repeatability, setting FPU to use double precision
============================[ Problem Statistics ]=============================
|                                                                             |
|  Number of variables:            25                                         |
|  Number of clauses:             250                                         |
|  Parse time:                   0.00 s                                       |
|                                                                             |
============================[ Search Statistics ]==============================
| Conflicts |          ORIGINAL         |          LEARNT          | Progress |
|           |    Vars  Clauses Literals |    Limit  Clauses Lit/Cl |          |
===============================================================================
===============================================================================
restarts              : 1
conflicts             : 0              (0 /sec)
decisions             : 7              (0.00 % random) (41667 /sec)
propagations          : 25             (148810 /sec)
conflict literals     : 0              (-nan % deleted)
Memory used           : 11.00 MB
CPU time              : 0.000168 s

SATISFIABLE
